Sat 19 May 19:18:27 CEST 2018
CPXPARAM_TimeLimit                               45
CPXPARAM_Threads                                 1
CPXPARAM_MIP_Strategy_CallbackReducedLP          0
Tried aggregator 3 times.
MIP Presolve eliminated 2308 rows and 1652 columns.
MIP Presolve modified 1740 coefficients.
Aggregator did 2932 substitutions.
Reduced MIP has 5872 rows, 5405 columns, and 14576 nonzeros.
Reduced MIP has 4716 binaries, 9 generals, 0 SOSs, and 980 indicators.
Presolve time = 0.04 sec. (62.83 ticks)
Probing time = 0.13 sec. (104.55 ticks)
Tried aggregator 3 times.
Aggregator did 2684 substitutions.
Reduced MIP has 3188 rows, 2721 columns, and 9208 nonzeros.
Reduced MIP has 2032 binaries, 689 generals, 0 SOSs, and 980 indicators.
Presolve time = 0.01 sec. (18.88 ticks)
Probing time = 0.06 sec. (49.52 ticks)
Tried aggregator 1 time.
Reduced MIP has 3188 rows, 2721 columns, and 9208 nonzeros.
Reduced MIP has 2032 binaries, 689 generals, 0 SOSs, and 980 indicators.
Presolve time = 0.01 sec. (8.80 ticks)
Probing time = 0.00 sec. (4.24 ticks)
Clique table members: 58976.
MIP emphasis: balance optimality and feasibility.
MIP search method: dynamic search.
Parallel mode: none, using 1 thread.
Root relaxation solution time = 0.01 sec. (9.90 ticks)

        Nodes                                         Cuts/
   Node  Left     Objective  IInf  Best Integer    Best Bound    ItCnt     Gap

      0     0        0.0000  1087                      0.0000      271         
      0     0        0.0000   939                Cliques: 897      463         
      0     0        0.0000   963                Cliques: 897      673         
      0     0        0.0000   710                Cliques: 897     1203         
      0     0        0.0000   562                Cliques: 897     1367         
      0     0        0.0000   381                    Cuts: 47     1699         
      0     0        0.0000   739                    Cuts: 69     1885         
      0     2        0.0000   739                      0.0000     1885         
Elapsed time = 3.80 sec. (4957.12 ticks, tree = 0.01 MB, solutions = 0)
      9    11       14.0000   557                      0.0000     2160         
     29    31        3.0000   526                      0.0000     2551         
     40    42        0.0000   727                      0.0000     2625         
     50    52        0.0000   727                      0.0000     2719         
     61    63        6.0000   527                      0.0000     2822         
     70    72        0.0000   727                      0.0000     2935         
     81    83        9.0000   524                      0.0000     3096         
     96    98       12.0000   553                      0.0000     3321         
    128   130        2.0000   565                      0.8000     4129         
*   150+  149                           16.0000        0.8000            95.00%
*   200+  175                           15.0000        2.0000            86.67%
*   250+  193                           14.0000        2.0000            85.71%
*   310+  181                           13.0000        2.0000            84.62%
*   340+  173                           12.0000        2.0000            83.33%
*   390+  166                           10.0000        2.0000            80.00%
*   410+  136                            9.0000        2.0000            77.78%
    410   135        9.0000     1        9.0000        2.0000     7492   77.78%
Elapsed time = 6.30 sec. (8296.93 ticks, tree = 0.90 MB, solutions = 7)
*   430+  111                            8.0000        2.0000            75.00%
*   490+  127                            7.0000        2.0000            71.43%
*   500+   98                            6.0000        2.0000            66.67%
*   560+   64                            5.0000        2.0000            60.00%
    568    65        4.0000    36        5.0000        2.0000    10653   60.00%
*   575    26      integral     0        4.0000        2.0000    10763   50.00%

Clique cuts applied:  2009
Implied bound cuts applied:  130
Zero-half cuts applied:  2

Root node processing (before b&c):
  Real time             =    3.79 sec. (4944.76 ticks)
Sequential b&c:
  Real time             =    3.12 sec. (4373.06 ticks)
                          ------------
Total (root+branch&cut) =    6.91 sec. (9317.82 ticks)
   | W
 L | 0 1 2 3 4 5 
----------------
 0 | 2 2 3 3 6 6 
 1 | 2 2 3 3 4 4 
 2 | 5 1 1 8 4 4 
 3 | 5 1 1 8 7 7 
 4 | . . . . . . 
 5 | . . . . . . 
 6 | . . . . . . 
 7 | . . . . . . 
 8 | . . . . . . 
 9 | . . . . . . 
10 | . . . . . . 
11 | . . . . . . 
12 | . . . . . . 
13 | . . . . . . 
14 | . . . . . . 
15 | . . . . . . 

Boxes' corners:      (w,l)
    Box 1 is at 
        top left     (1,2)
        bottom right (2,3)

    Box 2 is at 
        top left     (0,0)
        bottom right (1,1)

    Box 3 is at 
        top left     (2,0)
        bottom right (3,1)

    Box 4 is at 
        top left     (4,1)
        bottom right (5,2)

    Box 5 is at 
        top left     (0,2)
        bottom right (0,3)

    Box 6 is at 
        top left     (4,0)
        bottom right (5,0)

    Box 7 is at 
        top left     (4,3)
        bottom right (5,3)

    Box 8 is at 
        top left     (3,2)
        bottom right (3,3)

    Roll length used: 4
In 6.92 seconds
